40 30
12 234
13 199
28 293
11 909
26 968
9 881
2 810
29 151
19 121
11 739
23 424
27 753
7 280
20 816
20 843
24 269
19 547
11 508
15 810
17 885
10 238
4 917
20 570
6 798
2 447
11 323
6 304
29 972
14 424
14 703
19 663
10 462
5 56
19 448
1 965
19 891
24 925
1 730
1 824
26 265
